4 
5  22 44 
6  00 20 32 45 
7  00 15 33 48 
8  03 18 33 48 
9  03 18 33 48 
10  03 18 33 48 
11  03 18 33 48 
12  03 18 33 48 
13  03 18 33 48 
14  03 18 33 48 
15  03 18 33 48 
16  03 18 33 48 
17  03 18 33 48 
18  03 18 33 48 
19  04 20 35 50 
20  05 20 35 50 
21  05 20 35 50 
22  05 19 34 49 
23  04 19 
0 
